
Gurobi 10.0.1 (linux64) logging started Sun Nov 26 16:29:18 2023

Set parameter LogFile to value "ArtificialInstance/ExperimentV2/S3T5K3/AdRo/gurobiDoRo59.txt"
Gurobi Optimizer version 10.0.1 build v10.0.1rc0 (linux64)

CPU model: AMD EPYC 7H12 64-Core Processor, instruction set [SSE2|AVX|AVX2]
Thread count: 128 physical cores, 128 logical processors, using up to 32 threads

Academic license 656792 - for non-commercial use only - registered to b.___@student.vu.nl
Optimize a model with 21803 rows, 20185 columns and 78709 nonzeros
Model fingerprint: 0x45d9248f
Variable types: 1 continuous, 20184 integer (20184 binary)
Coefficient statistics:
  Matrix range     [1e+00, 4e+01]
  Objective range  [1e+00, 2e+01]
  Bounds range     [1e+00, 1e+00]
  RHS range        [1e+00, 1e+00]
Presolve removed 11233 rows and 10520 columns
Presolve time: 0.45s
Presolved: 10570 rows, 9665 columns, 37655 nonzeros
Variable types: 1 continuous, 9664 integer (9664 binary)

Root relaxation: objective 1.085270e+02, 2588 iterations, 0.13 seconds (0.10 work units)

    Nodes    |    Current Node    |     Objective Bounds      |     Work
 Expl Unexpl |  Obj  Depth IntInf | Incumbent    BestBd   Gap | It/Node Time

H    0     0                     108.5270067   66.99614  38.3%     -    0s
     0     0          -    0       108.52701  108.52701  0.00%     -    0s

Explored 1 nodes (5112 simplex iterations) in 0.69 seconds (0.51 work units)
Thread count was 32 (of 128 available processors)

Solution count 1: 108.527 

Optimal solution found (tolerance 1.00e-04)
Best objective 1.085270066860e+02, best bound 1.085270066860e+02, gap 0.0000%
